Using license file /home/anup/gurobi.lic
Academic license - for non-commercial use only
Changed value of parameter NonConvex to 2
   Prev: -1  Min: -1  Max: 2  Default: -1

Gurobi Optimizer version 9.0.0 build v9.0.0rc2 (linux64)
Optimize a model with 15 rows, 21 columns and 32 nonzeros
Model fingerprint: 0x48503206
Model has 3 quadratic constraints
Model has 3 general constraints
Variable types: 17 continuous, 4 integer (2 binary)
Coefficient statistics:
  Matrix range     [1e-04, 1e+01]
  QMatrix range    [1e+00, 1e+00]
  QLMatrix range   [1e+00, 1e+00]
  Objective range  [1e+00, 1e+00]
  Bounds range     [1e+00, 3e+04]
  RHS range        [1e+00, 5e+01]

---------------------------------------------------------------------------
Multi-objectives: starting optimization with 2 objectives ... 
---------------------------------------------------------------------------

Multi-objectives: applying initial presolve ...
---------------------------------------------------------------------------

Presolve added 2 rows and 7 columns
Presolve time: 0.00s
Presolved: 28 rows and 32 columns
---------------------------------------------------------------------------

Multi-objectives: optimize objective 1 (ns) ...
---------------------------------------------------------------------------

Presolve removed 5 rows and 8 columns
Presolve time: 0.00s
Presolved: 31 rows, 25 columns, 89 nonzeros
Presolved model has 1 SOS constraint(s)
Presolved model has 2 bilinear constraint(s)
Variable types: 16 continuous, 9 integer (7 binary)

Root relaxation: objective 1.020408e+01, 15 iterations, 0.00 seconds

    Nodes    |    Current Node    |     Objective Bounds      |     Work
 Expl Unexpl |  Obj  Depth IntInf | Incumbent    BestBd   Gap | It/Node Time

     0     0   10.20408    0    4          -   10.20408      -     -    0s
     0     0   10.20408    0    3          -   10.20408      -     -    0s
     0     0   10.20408    0    3          -   10.20408      -     -    0s
H    0     0                      10.2040816   10.20408  0.00%     -    0s

Cutting planes:
  Gomory: 1
  RLT: 1

Explored 1 nodes (18 simplex iterations) in 0.01 seconds
Thread count was 8 (of 8 available processors)

Solution count 1: 10.2041 

Optimal solution found (tolerance 1.00e-04)
Best objective 1.020408163265e+01, best bound 1.020408163265e+01, gap 0.0000%
---------------------------------------------------------------------------

Multi-objectives: optimize objective 2 (res) ...
---------------------------------------------------------------------------


Loaded user MIP start with objective 82.7501

Presolve removed 21 rows and 21 columns
Presolve time: 0.00s
Presolved: 8 rows, 11 columns, 27 nonzeros
Found heuristic solution: objective 60.8563461
Variable types: 6 continuous, 5 integer (5 binary)

Explored 0 nodes (0 simplex iterations) in 0.01 seconds
Thread count was 8 (of 8 available processors)

Solution count 2: 60.8563 82.7501 

Optimal solution found (tolerance 1.00e-04)
Best objective 6.085634613037e+01, best bound 6.085620117188e+01, gap 0.0002%

---------------------------------------------------------------------------
Multi-objectives: solved in 0.01 seconds, solution count 2

--------------------------------------------------
Model update took: 2.1219253540039062e-05 seconds
Model optimize took: 0.007876157760620117 seconds
--------------------------------------------------

Solution quality statistics for model netmon :
  Maximum violation:
    Bound       : 0.00000000e+00
    Constraint  : 0.00000000e+00
    Integrality : 0.00000000e+00

Throughput: 93.33333333333333 Mpps, ns per packet: 10.714285714285715
Resources: 60.856346130371094

Sketch (0) (cm: eps0: 0.00625, del0: 0.05, min_mem: 1.69921875)
Par: 1, Rows: 3
0.000    1.000    
Total frac: 1.000

Device (0) cpu_1:
cores_sketch: 0.0, cores_dpdk: 6.0
Rows total: 0.0
Mem total: 1.1875
Throughput: 93.33333333333333

Device (1) p4_1:
Rows total: 3.0
Mem total: 5.09765625
Throughput: 148.0
--------------------------------------------------
